NAME : cgl_57.7999.tour
COMMENT : Length = 7999
COMMENT : Found by LKH-3 [Keld Helsgaun] Fri Nov  8 17:38:20 2024
TYPE : TOUR
DIMENSION : 58
TOUR_SECTION
25
33
26
32
30
28
27
31
29
2
4
3
1
5
7
6
8
11
12
9
10
15
14
13
16
17
19
18
34
57
55
56
58
50
49
44
47
48
51
46
43
45
52
40
42
41
39
38
37
53
54
36
35
24
21
20
23
22
-1
EOF
